Ru Hf Zr Al
 1.0000000000000000
     6.2000000000000002    0.0000000000000000    0.0000000000000000
     0.0000000000000000    6.2000000000000002    0.0000000000000000
     0.0000000000000000    0.0000000000000000    6.2000000000000002
 Ru  Hf  Zr  Al 
   6   4   4   2
Cartesian
  0.0000000000000000  0.0000000000000000  0.0000000000000000
  0.0000000000000000  0.0000000000000000  3.0999999999999996
  0.0000000000000000  3.0999999999999996  0.0000000000000000
  0.0000000000000000  3.0999999999999996  3.0999999999999996
  3.0999999999999996  0.0000000000000000  0.0000000000000000
  3.0999999999999996  3.0999999999999996  0.0000000000000000
  1.5500000000000000  1.5500000000000000  1.5500000000000000
  1.5500000000000000  1.5500000000000000  4.6500000000000004
  4.6500000000000004  1.5500000000000000  1.5500000000000000
  4.6500000000000004  4.6500000000000004  1.5500000000000000
  1.5500000000000000  4.6500000000000004  1.5500000000000000
  1.5500000000000000  4.6500000000000004  4.6500000000000004
  4.6500000000000004  1.5500000000000000  4.6500000000000004
  4.6500000000000004  4.6500000000000004  4.6500000000000004
  3.0999999999999996  0.0000000000000000  3.0999999999999996
  3.0999999999999996  3.0999999999999996  3.0999999999999996
