Mo Nb Ta
 1.0000000000000000
    -4.6500000000000004    4.6500000000000004    4.6500000000000004
     4.6500000000000004   -4.6500000000000004    4.6500000000000004
     1.5500000000000000    1.5500000000000000   -1.5500000000000000
 Mo  Nb  Ta 
   3   3   3
Cartesian
  0.0000000000000000  0.0000000000000000  0.0000000000000000
 -1.5500000000000000  1.5500000000000000  1.5500000000000000
  1.5500000000000000 -1.5500000000000000  4.6500000000000004
  1.5500000000000000 -1.5500000000000000  1.5500000000000000
  0.0000000000000000  0.0000000000000000  3.1000000000000001
  0.0000000000000000  0.0000000000000000  6.2000000000000002
  3.1000000000000001 -3.1000000000000001  3.1000000000000001
 -3.1000000000000001  3.1000000000000001  3.1000000000000001
 -1.5500000000000003  1.5500000000000003  4.6500000000000004
