Mo Ta
 1.0000000000000000
    -3.1000000000000001    3.1000000000000001    3.1000000000000001
     3.1000000000000001   -3.1000000000000001    3.1000000000000001
     3.1000000000000001    3.1000000000000001   -3.1000000000000001
 Mo  Ta 
   4   4
Cartesian
  0.0000000000000000  0.0000000000000000  0.0000000000000000
  1.5499999999999998 -1.5499999999999998  1.5499999999999998
 -1.5499999999999998  1.5499999999999998  1.5499999999999998
  0.0000000000000000  3.0999999999999996  0.0000000000000000
  1.5499999999999998  1.5499999999999998 -1.5499999999999998
  3.0999999999999996  0.0000000000000000  0.0000000000000000
  0.0000000000000000  0.0000000000000000  3.0999999999999996
  1.5499999999999998  1.5499999999999998  1.5499999999999998
