Ru Ti V 
 1.0000000000000000
     6.2000000000000002    0.0000000000000000    0.0000000000000000
     0.0000000000000000    6.2000000000000002    0.0000000000000000
     0.0000000000000000    0.0000000000000000    6.2000000000000002
 Ru  Ti  V  
   8   6   2
Cartesian
  0.0000000000000000  0.0000000000000000  0.0000000000000000
  0.0000000000000000  0.0000000000000000  3.1000000000000001
  0.0000000000000000  3.1000000000000001  0.0000000000000000
  0.0000000000000000  3.1000000000000001  3.1000000000000001
  3.1000000000000001  0.0000000000000000  0.0000000000000000
  3.1000000000000001  0.0000000000000000  3.1000000000000001
  3.1000000000000001  3.1000000000000001  0.0000000000000000
  3.1000000000000001  3.1000000000000001  3.1000000000000001
  1.5500000000000000  1.5500000000000000  1.5500000000000000
  1.5500000000000000  1.5500000000000000  4.6500000000000004
  1.5500000000000000  4.6500000000000004  1.5500000000000000
  1.5500000000000000  4.6500000000000004  4.6500000000000004
  4.6500000000000004  1.5500000000000000  4.6500000000000004
  4.6500000000000004  4.6500000000000004  1.5500000000000000
  4.6500000000000004  1.5500000000000000  1.5500000000000000
  4.6500000000000004  4.6500000000000004  4.6500000000000004
